76
67
80
92
53
91
109
89
23
99
43
4
105
107
38
74
11
41
33
1
32
90
46
28
59
37
95
39
70
55
58
42
54
5
8
24
102
9
52
3
35
6
72
106
104
103
87
34
100
49
110
31
71
97
82
18
25
73
13
12
36
84
48
10
61
2
78
56
45
98
69
77
64
16
57
88
47
85
60
63
86
7
108
44
30
21
79
93
65
81
27
101
29
66
50
26
22
94
75
14
